(set-info :original "/var/folders/xz/sgqbj6yn0yv_1mpy6_jqympm0000gn/T/sea-3WDqIg/sum_multi_array.pp.ms.o.bc")
(set-info :authors "SeaHorn v.0.1.0-rc3")
(declare-rel verifier.error (Bool Bool Bool ))
(declare-rel __JVERIFIER_assert@_sm ((Array Int Int) (Array Int Int) (Array Int Int) Int ))
(declare-rel __JVERIFIER_assert@_call3 ((Array Int Int) (Array Int Int) (Array Int Int) Int ))
(declare-rel __JVERIFIER_assert (Bool Bool Bool (Array Int Int) (Array Int Int) (Array Int Int) (Array Int Int) (Array Int Int) (Array Int Int) Int ))
(declare-rel main@entry (Int (Array Int Int) (Array Int Int) (Array Int Int) ))
(declare-rel main@_bb (Int Int Int (Array Int Int) Int (Array Int Int) Int (Array Int Int) ))
(declare-rel main@_bb13 (Int (Array Int Int) Int (Array Int Int) Int Int (Array Int Int) ))
(declare-rel main@_bb16 (Int Int Int (Array Int Int) (Array Int Int) (Array Int Int) Int ))
(declare-rel main@verifier.error.split ())
(declare-var __JVERIFIER_assert@%sm_0 (Array Int Int) )
(declare-var __JVERIFIER_assert@%sm1_0 (Array Int Int) )
(declare-var __JVERIFIER_assert@%sm2_0 (Array Int Int) )
(declare-var __JVERIFIER_assert@%_call_0 Bool )
(declare-var __JVERIFIER_assert@arg.0_0 Int )
(declare-var __JVERIFIER_assert@_sm_0 Bool )
(declare-var __JVERIFIER_assert@_call3_0 Bool )
(declare-var main@%_3_0 Int )
(declare-var @__VERIFIER_nondet_int_0 Int )
(declare-var main@%_4_0 Int )
(declare-var main@%_5_0 Int )
(declare-var main@%_6_0 Int )
(declare-var main@%_7_0 Int )
(declare-var main@%_8_0 Int )
(declare-var main@%_14_0 Int )
(declare-var main@%_15_0 Int )
(declare-var main@%_16_0 Int )
(declare-var main@%_17_0 Int )
(declare-var main@%_18_0 Int )
(declare-var main@%_19_0 Int )
(declare-var main@%_36_0 Bool )
(declare-var main@%_25_0 Int )
(declare-var main@%_26_0 Int )
(declare-var main@%_27_0 Int )
(declare-var main@%_28_0 Int )
(declare-var main@%_29_0 Int )
(declare-var main@%_30_0 Int )
(declare-var main@%_31_0 Int )
(declare-var main@%_32_0 Bool )
(declare-var main@%_34_0 Bool )
(declare-var main@%_23_0 Bool )
(declare-var main@%_12_0 Bool )
(declare-var main@%_1_0 Bool )
(declare-var main@%sm10_0 (Array Int Int) )
(declare-var main@%sm9_0 (Array Int Int) )
(declare-var main@%sm8_0 (Array Int Int) )
(declare-var main@entry_0 Bool )
(declare-var @a_0 Int )
(declare-var @b_0 Int )
(declare-var @c_0 Int )
(declare-var main@%sm_0 (Array Int Int) )
(declare-var main@%sm1_0 (Array Int Int) )
(declare-var main@%sm2_0 (Array Int Int) )
(declare-var main@_bb_0 Bool )
(declare-var main@%shadow.mem.8.0_0 (Array Int Int) )
(declare-var main@%shadow.mem.4.0_0 (Array Int Int) )
(declare-var main@%.0.i_0 Int )
(declare-var main@%shadow.mem.8.0_1 (Array Int Int) )
(declare-var main@%shadow.mem.4.0_1 (Array Int Int) )
(declare-var main@%.0.i_1 Int )
(declare-var main@_bb11_0 Bool )
(declare-var main@%sm3_0 (Array Int Int) )
(declare-var main@%sm4_0 (Array Int Int) )
(declare-var main@%_9_0 Int )
(declare-var main@_bb_1 Bool )
(declare-var main@%shadow.mem.8.0_2 (Array Int Int) )
(declare-var main@%shadow.mem.4.0_2 (Array Int Int) )
(declare-var main@%.0.i_2 Int )
(declare-var main@_bb12_0 Bool )
(declare-var main@_bb13_0 Bool )
(declare-var main@%shadow.mem.0.0_0 (Array Int Int) )
(declare-var main@%.1.i_0 Int )
(declare-var main@%shadow.mem.0.0_1 (Array Int Int) )
(declare-var main@%.1.i_1 Int )
(declare-var main@_bb14_0 Bool )
(declare-var main@%sm5_0 (Array Int Int) )
(declare-var main@%_20_0 Int )
(declare-var main@_bb13_1 Bool )
(declare-var main@%shadow.mem.0.0_2 (Array Int Int) )
(declare-var main@%.1.i_2 Int )
(declare-var main@_bb15_0 Bool )
(declare-var main@_bb16_0 Bool )
(declare-var main@%shadow.mem.8.1_0 (Array Int Int) )
(declare-var main@%shadow.mem.4.1_0 (Array Int Int) )
(declare-var main@%shadow.mem.0.1_0 (Array Int Int) )
(declare-var main@%.2.i_0 Int )
(declare-var main@%shadow.mem.8.1_1 (Array Int Int) )
(declare-var main@%shadow.mem.4.1_1 (Array Int Int) )
(declare-var main@%shadow.mem.0.1_1 (Array Int Int) )
(declare-var main@%.2.i_1 Int )
(declare-var main@_bb17_0 Bool )
(declare-var main@%_33_0 Int )
(declare-var main@postcall_0 Bool )
(declare-var main@%sh_0 (Array Int Int) )
(declare-var main@%sh6_0 (Array Int Int) )
(declare-var main@%sh7_0 (Array Int Int) )
(declare-var main@%_35_0 Int )
(declare-var main@_bb16_1 Bool )
(declare-var main@%shadow.mem.8.1_2 (Array Int Int) )
(declare-var main@%shadow.mem.4.1_2 (Array Int Int) )
(declare-var main@%shadow.mem.0.1_2 (Array Int Int) )
(declare-var main@%.2.i_2 Int )
(declare-var main@precall_0 Bool )
(declare-var main@__JVERIFIER_assert_0 Bool )
(declare-var main@_bb18_0 Bool )
(declare-var main@verifier.error_0 Bool )
(declare-var main@verifier.error.split_0 Bool )
(rule (verifier.error false false false))
(rule (verifier.error false true true))
(rule (verifier.error true false true))
(rule (verifier.error true true true))
(rule (__JVERIFIER_assert
  true
  true
  true
  __JVERIFIER_assert@%sm_0
  __JVERIFIER_assert@%sm_0
  __JVERIFIER_assert@%sm1_0
  __JVERIFIER_assert@%sm1_0
  __JVERIFIER_assert@%sm2_0
  __JVERIFIER_assert@%sm2_0
  __JVERIFIER_assert@arg.0_0))
(rule (__JVERIFIER_assert
  false
  true
  true
  __JVERIFIER_assert@%sm_0
  __JVERIFIER_assert@%sm_0
  __JVERIFIER_assert@%sm1_0
  __JVERIFIER_assert@%sm1_0
  __JVERIFIER_assert@%sm2_0
  __JVERIFIER_assert@%sm2_0
  __JVERIFIER_assert@arg.0_0))
(rule (__JVERIFIER_assert
  false
  false
  false
  __JVERIFIER_assert@%sm_0
  __JVERIFIER_assert@%sm_0
  __JVERIFIER_assert@%sm1_0
  __JVERIFIER_assert@%sm1_0
  __JVERIFIER_assert@%sm2_0
  __JVERIFIER_assert@%sm2_0
  __JVERIFIER_assert@arg.0_0))
(rule (__JVERIFIER_assert@_sm
  __JVERIFIER_assert@%sm_0
  __JVERIFIER_assert@%sm1_0
  __JVERIFIER_assert@%sm2_0
  __JVERIFIER_assert@arg.0_0))
(rule (=> (and (__JVERIFIER_assert@_sm
           __JVERIFIER_assert@%sm_0
           __JVERIFIER_assert@%sm1_0
           __JVERIFIER_assert@%sm2_0
           __JVERIFIER_assert@arg.0_0)
         true
         (= __JVERIFIER_assert@%_call_0 (= __JVERIFIER_assert@arg.0_0 0))
         (not __JVERIFIER_assert@%_call_0)
         (=> __JVERIFIER_assert@_call3_0
             (and __JVERIFIER_assert@_call3_0 __JVERIFIER_assert@_sm_0))
         __JVERIFIER_assert@_call3_0)
    (__JVERIFIER_assert@_call3
      __JVERIFIER_assert@%sm_0
      __JVERIFIER_assert@%sm1_0
      __JVERIFIER_assert@%sm2_0
      __JVERIFIER_assert@arg.0_0)))
(rule (=> (__JVERIFIER_assert@_call3
      __JVERIFIER_assert@%sm_0
      __JVERIFIER_assert@%sm1_0
      __JVERIFIER_assert@%sm2_0
      __JVERIFIER_assert@arg.0_0)
    (__JVERIFIER_assert
      true
      false
      false
      __JVERIFIER_assert@%sm_0
      __JVERIFIER_assert@%sm_0
      __JVERIFIER_assert@%sm1_0
      __JVERIFIER_assert@%sm1_0
      __JVERIFIER_assert@%sm2_0
      __JVERIFIER_assert@%sm2_0
      __JVERIFIER_assert@arg.0_0)))
(rule (main@entry @__VERIFIER_nondet_int_0 main@%sm10_0 main@%sm9_0 main@%sm8_0))
(rule (=> (and (main@entry @__VERIFIER_nondet_int_0
                     main@%sm10_0
                     main@%sm9_0
                     main@%sm8_0)
         true
         (= main@%sm_0 main@%sm10_0)
         (= main@%sm1_0 main@%sm9_0)
         (= main@%sm2_0 main@%sm8_0)
         (=> main@_bb_0 (and main@_bb_0 main@entry_0))
         (=> (and main@_bb_0 main@entry_0)
             (= main@%shadow.mem.8.0_0 main@%sm_0))
         (=> (and main@_bb_0 main@entry_0)
             (= main@%shadow.mem.4.0_0 main@%sm1_0))
         (=> (and main@_bb_0 main@entry_0) (= main@%.0.i_0 0))
         (=> (and main@_bb_0 main@entry_0)
             (= main@%shadow.mem.8.0_1 main@%shadow.mem.8.0_0))
         (=> (and main@_bb_0 main@entry_0)
             (= main@%shadow.mem.4.0_1 main@%shadow.mem.4.0_0))
         (=> (and main@_bb_0 main@entry_0) (= main@%.0.i_1 main@%.0.i_0))
         main@_bb_0)
    (main@_bb @__VERIFIER_nondet_int_0
              @a_0
              main@%.0.i_1
              main@%shadow.mem.8.0_1
              @b_0
              main@%shadow.mem.4.0_1
              @c_0
              main@%sm2_0)))
(rule (let ((a!1 (=> main@_bb11_0
               (= main@%_5_0 (+ @a_0 (* 0 4000000) (* main@%.0.i_0 4) 0))))
      (a!2 (=> main@_bb11_0
               (= main@%_8_0 (+ @b_0 (* 0 4000000) (* main@%.0.i_0 4) 0)))))
(let ((a!3 (and (main@_bb @__VERIFIER_nondet_int_0
                          @a_0
                          main@%.0.i_0
                          main@%shadow.mem.8.0_0
                          @b_0
                          main@%shadow.mem.4.0_0
                          @c_0
                          main@%sm2_0)
                true
                (= main@%_1_0 (< main@%.0.i_0 1000000))
                (=> main@_bb11_0 (and main@_bb11_0 main@_bb_0))
                (=> (and main@_bb11_0 main@_bb_0) main@%_1_0)
                (=> main@_bb11_0 (= main@%_3_0 @__VERIFIER_nondet_int_0))
                a!1
                (=> main@_bb11_0 (or (<= @a_0 0) (> main@%_5_0 0)))
                (=> main@_bb11_0 (> @a_0 0))
                (=> main@_bb11_0
                    (= main@%sm3_0
                       (store main@%shadow.mem.8.0_0 main@%_5_0 main@%_4_0)))
                (=> main@_bb11_0 (= main@%_6_0 @__VERIFIER_nondet_int_0))
                a!2
                (=> main@_bb11_0 (or (<= @b_0 0) (> main@%_8_0 0)))
                (=> main@_bb11_0 (> @b_0 0))
                (=> main@_bb11_0
                    (= main@%sm4_0
                       (store main@%shadow.mem.4.0_0 main@%_8_0 main@%_7_0)))
                (=> main@_bb11_0 (= main@%_9_0 (+ main@%.0.i_0 1)))
                (=> main@_bb_1 (and main@_bb_1 main@_bb11_0))
                (=> (and main@_bb_1 main@_bb11_0)
                    (= main@%shadow.mem.8.0_1 main@%sm3_0))
                (=> (and main@_bb_1 main@_bb11_0)
                    (= main@%shadow.mem.4.0_1 main@%sm4_0))
                (=> (and main@_bb_1 main@_bb11_0) (= main@%.0.i_1 main@%_9_0))
                (=> (and main@_bb_1 main@_bb11_0)
                    (= main@%shadow.mem.8.0_2 main@%shadow.mem.8.0_1))
                (=> (and main@_bb_1 main@_bb11_0)
                    (= main@%shadow.mem.4.0_2 main@%shadow.mem.4.0_1))
                (=> (and main@_bb_1 main@_bb11_0) (= main@%.0.i_2 main@%.0.i_1))
                main@_bb_1)))
  (=> a!3
      (main@_bb @__VERIFIER_nondet_int_0
                @a_0
                main@%.0.i_2
                main@%shadow.mem.8.0_2
                @b_0
                main@%shadow.mem.4.0_2
                @c_0
                main@%sm2_0)))))
(rule (=> (and (main@_bb @__VERIFIER_nondet_int_0
                   @a_0
                   main@%.0.i_0
                   main@%shadow.mem.8.0_0
                   @b_0
                   main@%shadow.mem.4.0_0
                   @c_0
                   main@%sm2_0)
         true
         (= main@%_1_0 (< main@%.0.i_0 1000000))
         (=> main@_bb12_0 (and main@_bb12_0 main@_bb_0))
         (=> (and main@_bb12_0 main@_bb_0) (not main@%_1_0))
         (=> main@_bb13_0 (and main@_bb13_0 main@_bb12_0))
         (=> (and main@_bb13_0 main@_bb12_0)
             (= main@%shadow.mem.0.0_0 main@%sm2_0))
         (=> (and main@_bb13_0 main@_bb12_0) (= main@%.1.i_0 0))
         (=> (and main@_bb13_0 main@_bb12_0)
             (= main@%shadow.mem.0.0_1 main@%shadow.mem.0.0_0))
         (=> (and main@_bb13_0 main@_bb12_0) (= main@%.1.i_1 main@%.1.i_0))
         main@_bb13_0)
    (main@_bb13 @a_0
                main@%shadow.mem.8.0_0
                @b_0
                main@%shadow.mem.4.0_0
                main@%.1.i_1
                @c_0
                main@%shadow.mem.0.0_1)))
(rule (let ((a!1 (=> main@_bb14_0
               (= main@%_14_0 (+ @a_0 (* 0 4000000) (* main@%.1.i_0 4) 0))))
      (a!2 (=> main@_bb14_0
               (= main@%_16_0 (+ @b_0 (* 0 4000000) (* main@%.1.i_0 4) 0))))
      (a!3 (=> main@_bb14_0
               (= main@%_19_0 (+ @c_0 (* 0 4000000) (* main@%.1.i_0 4) 0)))))
(let ((a!4 (and (main@_bb13 @a_0
                            main@%shadow.mem.8.0_0
                            @b_0
                            main@%shadow.mem.4.0_0
                            main@%.1.i_0
                            @c_0
                            main@%shadow.mem.0.0_0)
                true
                (= main@%_12_0 (< main@%.1.i_0 1000000))
                (=> main@_bb14_0 (and main@_bb14_0 main@_bb13_0))
                (=> (and main@_bb14_0 main@_bb13_0) main@%_12_0)
                a!1
                (=> main@_bb14_0 (or (<= @a_0 0) (> main@%_14_0 0)))
                (=> main@_bb14_0 (> @a_0 0))
                (=> main@_bb14_0
                    (= main@%_15_0 (select main@%shadow.mem.8.0_0 main@%_14_0)))
                a!2
                (=> main@_bb14_0 (or (<= @b_0 0) (> main@%_16_0 0)))
                (=> main@_bb14_0 (> @b_0 0))
                (=> main@_bb14_0
                    (= main@%_17_0 (select main@%shadow.mem.4.0_0 main@%_16_0)))
                (=> main@_bb14_0 (= main@%_18_0 (+ main@%_15_0 main@%_17_0)))
                a!3
                (=> main@_bb14_0 (or (<= @c_0 0) (> main@%_19_0 0)))
                (=> main@_bb14_0 (> @c_0 0))
                (=> main@_bb14_0
                    (= main@%sm5_0
                       (store main@%shadow.mem.0.0_0 main@%_19_0 main@%_18_0)))
                (=> main@_bb14_0 (= main@%_20_0 (+ main@%.1.i_0 1)))
                (=> main@_bb13_1 (and main@_bb13_1 main@_bb14_0))
                (=> (and main@_bb13_1 main@_bb14_0)
                    (= main@%shadow.mem.0.0_1 main@%sm5_0))
                (=> (and main@_bb13_1 main@_bb14_0)
                    (= main@%.1.i_1 main@%_20_0))
                (=> (and main@_bb13_1 main@_bb14_0)
                    (= main@%shadow.mem.0.0_2 main@%shadow.mem.0.0_1))
                (=> (and main@_bb13_1 main@_bb14_0)
                    (= main@%.1.i_2 main@%.1.i_1))
                main@_bb13_1)))
  (=> a!4
      (main@_bb13 @a_0
                  main@%shadow.mem.8.0_0
                  @b_0
                  main@%shadow.mem.4.0_0
                  main@%.1.i_2
                  @c_0
                  main@%shadow.mem.0.0_2)))))
(rule (=> (and (main@_bb13 @a_0
                     main@%shadow.mem.8.0_0
                     @b_0
                     main@%shadow.mem.4.0_0
                     main@%.1.i_0
                     @c_0
                     main@%shadow.mem.0.0_0)
         true
         (= main@%_12_0 (< main@%.1.i_0 1000000))
         (=> main@_bb15_0 (and main@_bb15_0 main@_bb13_0))
         (=> (and main@_bb15_0 main@_bb13_0) (not main@%_12_0))
         (=> main@_bb16_0 (and main@_bb16_0 main@_bb15_0))
         (=> (and main@_bb16_0 main@_bb15_0)
             (= main@%shadow.mem.8.1_0 main@%shadow.mem.8.0_0))
         (=> (and main@_bb16_0 main@_bb15_0)
             (= main@%shadow.mem.4.1_0 main@%shadow.mem.4.0_0))
         (=> (and main@_bb16_0 main@_bb15_0)
             (= main@%shadow.mem.0.1_0 main@%shadow.mem.0.0_0))
         (=> (and main@_bb16_0 main@_bb15_0) (= main@%.2.i_0 0))
         (=> (and main@_bb16_0 main@_bb15_0)
             (= main@%shadow.mem.8.1_1 main@%shadow.mem.8.1_0))
         (=> (and main@_bb16_0 main@_bb15_0)
             (= main@%shadow.mem.4.1_1 main@%shadow.mem.4.1_0))
         (=> (and main@_bb16_0 main@_bb15_0)
             (= main@%shadow.mem.0.1_1 main@%shadow.mem.0.1_0))
         (=> (and main@_bb16_0 main@_bb15_0) (= main@%.2.i_1 main@%.2.i_0))
         main@_bb16_0)
    (main@_bb16 @a_0
                @b_0
                @c_0
                main@%shadow.mem.0.1_1
                main@%shadow.mem.4.1_1
                main@%shadow.mem.8.1_1
                main@%.2.i_1)))
(rule (let ((a!1 (=> main@_bb17_0
               (= main@%_25_0 (+ @c_0 (* 0 4000000) (* main@%.2.i_0 4) 0))))
      (a!2 (=> main@_bb17_0
               (= main@%_27_0 (+ @a_0 (* 0 4000000) (* main@%.2.i_0 4) 0))))
      (a!3 (=> main@_bb17_0
               (= main@%_29_0 (+ @b_0 (* 0 4000000) (* main@%.2.i_0 4) 0)))))
(let ((a!4 (and (main@_bb16 @a_0
                            @b_0
                            @c_0
                            main@%shadow.mem.0.1_0
                            main@%shadow.mem.4.1_0
                            main@%shadow.mem.8.1_0
                            main@%.2.i_0)
                true
                (= main@%_23_0 (< main@%.2.i_0 1000000))
                main@%_23_0
                (=> main@_bb17_0 (and main@_bb17_0 main@_bb16_0))
                a!1
                (=> main@_bb17_0 (or (<= @c_0 0) (> main@%_25_0 0)))
                (=> main@_bb17_0 (> @c_0 0))
                (=> main@_bb17_0
                    (= main@%_26_0 (select main@%shadow.mem.0.1_0 main@%_25_0)))
                a!2
                (=> main@_bb17_0 (or (<= @a_0 0) (> main@%_27_0 0)))
                (=> main@_bb17_0 (> @a_0 0))
                (=> main@_bb17_0
                    (= main@%_28_0 (select main@%shadow.mem.8.1_0 main@%_27_0)))
                a!3
                (=> main@_bb17_0 (or (<= @b_0 0) (> main@%_29_0 0)))
                (=> main@_bb17_0 (> @b_0 0))
                (=> main@_bb17_0
                    (= main@%_30_0 (select main@%shadow.mem.4.1_0 main@%_29_0)))
                (=> main@_bb17_0 (= main@%_31_0 (+ main@%_28_0 main@%_30_0)))
                (=> main@_bb17_0 (= main@%_32_0 (= main@%_26_0 main@%_31_0)))
                (=> main@_bb17_0 (= main@%_33_0 (ite main@%_32_0 1 0)))
                (=> main@postcall_0 (and main@postcall_0 main@_bb17_0))
                (=> (and main@postcall_0 main@_bb17_0) main@%_34_0)
                (__JVERIFIER_assert
                  main@postcall_0
                  false
                  false
                  main@%shadow.mem.0.1_0
                  main@%sh_0
                  main@%shadow.mem.4.1_0
                  main@%sh6_0
                  main@%shadow.mem.8.1_0
                  main@%sh7_0
                  main@%_33_0)
                (=> main@postcall_0 (= main@%_35_0 (+ main@%.2.i_0 1)))
                (=> main@_bb16_1 (and main@_bb16_1 main@postcall_0))
                (=> (and main@_bb16_1 main@postcall_0)
                    (= main@%shadow.mem.8.1_1 main@%sh7_0))
                (=> (and main@_bb16_1 main@postcall_0)
                    (= main@%shadow.mem.4.1_1 main@%sh6_0))
                (=> (and main@_bb16_1 main@postcall_0)
                    (= main@%shadow.mem.0.1_1 main@%sh_0))
                (=> (and main@_bb16_1 main@postcall_0)
                    (= main@%.2.i_1 main@%_35_0))
                (=> (and main@_bb16_1 main@postcall_0)
                    (= main@%shadow.mem.8.1_2 main@%shadow.mem.8.1_1))
                (=> (and main@_bb16_1 main@postcall_0)
                    (= main@%shadow.mem.4.1_2 main@%shadow.mem.4.1_1))
                (=> (and main@_bb16_1 main@postcall_0)
                    (= main@%shadow.mem.0.1_2 main@%shadow.mem.0.1_1))
                (=> (and main@_bb16_1 main@postcall_0)
                    (= main@%.2.i_2 main@%.2.i_1))
                main@_bb16_1)))
  (=> a!4
      (main@_bb16 @a_0
                  @b_0
                  @c_0
                  main@%shadow.mem.0.1_2
                  main@%shadow.mem.4.1_2
                  main@%shadow.mem.8.1_2
                  main@%.2.i_2)))))
(rule (let ((a!1 (=> main@_bb17_0
               (= main@%_25_0 (+ @c_0 (* 0 4000000) (* main@%.2.i_0 4) 0))))
      (a!2 (=> main@_bb17_0
               (= main@%_27_0 (+ @a_0 (* 0 4000000) (* main@%.2.i_0 4) 0))))
      (a!3 (=> main@_bb17_0
               (= main@%_29_0 (+ @b_0 (* 0 4000000) (* main@%.2.i_0 4) 0)))))
(let ((a!4 (and (main@_bb16 @a_0
                            @b_0
                            @c_0
                            main@%shadow.mem.0.1_0
                            main@%shadow.mem.4.1_0
                            main@%shadow.mem.8.1_0
                            main@%.2.i_0)
                true
                (= main@%_23_0 (< main@%.2.i_0 1000000))
                main@%_23_0
                (=> main@_bb17_0 (and main@_bb17_0 main@_bb16_0))
                a!1
                (=> main@_bb17_0 (or (<= @c_0 0) (> main@%_25_0 0)))
                (=> main@_bb17_0 (> @c_0 0))
                (=> main@_bb17_0
                    (= main@%_26_0 (select main@%shadow.mem.0.1_0 main@%_25_0)))
                a!2
                (=> main@_bb17_0 (or (<= @a_0 0) (> main@%_27_0 0)))
                (=> main@_bb17_0 (> @a_0 0))
                (=> main@_bb17_0
                    (= main@%_28_0 (select main@%shadow.mem.8.1_0 main@%_27_0)))
                a!3
                (=> main@_bb17_0 (or (<= @b_0 0) (> main@%_29_0 0)))
                (=> main@_bb17_0 (> @b_0 0))
                (=> main@_bb17_0
                    (= main@%_30_0 (select main@%shadow.mem.4.1_0 main@%_29_0)))
                (=> main@_bb17_0 (= main@%_31_0 (+ main@%_28_0 main@%_30_0)))
                (=> main@_bb17_0 (= main@%_32_0 (= main@%_26_0 main@%_31_0)))
                (=> main@_bb17_0 (= main@%_33_0 (ite main@%_32_0 1 0)))
                (=> main@precall_0 (and main@precall_0 main@_bb17_0))
                (=> (and main@precall_0 main@_bb17_0) (not main@%_34_0))
                (=> main@__JVERIFIER_assert_0
                    (and main@__JVERIFIER_assert_0 main@precall_0))
                (=> main@__JVERIFIER_assert_0 (= main@%_36_0 (= main@%_33_0 0)))
                (=> main@__JVERIFIER_assert_0 main@%_36_0)
                (=> main@_bb18_0 (and main@_bb18_0 main@__JVERIFIER_assert_0))
                (=> main@verifier.error_0
                    (and main@verifier.error_0 main@_bb18_0))
                (=> main@verifier.error.split_0
                    (and main@verifier.error.split_0 main@verifier.error_0))
                main@verifier.error.split_0)))
  (=> a!4 main@verifier.error.split))))
(query main@verifier.error.split)

